1640.0 21975.0 
1630.0 22684.0 
1634.0 22457.0 
1634.0 22457.0 
1636.0 22005.0 
1634.0 22457.0 
1635.0 22319.0 
1743.0 21546.0 
1644.0 21744.0 
1807.0 21540.0 
1708.0 21724.0 
1743.0 21546.0 
1728.0 21697.0 
